letting n =  10
letting blocks =  [[1, 2], [1, 7], [1, 10], [2, 3], [2, 8], [3, 9], [4, 1], [4, 2], [5, 5], [5, 7], [6, 4], [6, 7], [6, 10], [7, 1], [7, 7], [9, 2], [9, 3], [9, 10], [10, 6], [10, 8]]
